pyomo/contrib/doe/col_row.nl
g3 1 1 0	# problem unknown
 31 27 1 0 27 	# vars, constraints, objectives, ranges, eqns
 24 0 0 0 0 0	# nonlinear constrs, objs; ccons: lin, nonlin, nd, nzlb
 0 0	# network constraints: nonlinear, linear
 4 0 0 	# nonlinear vars in constraints, objectives, both
 0 0 0 1	# linear network variables; functions; arith, flags
 0 0 0 0 0 	# discrete variables: binary, integer, nonlinear (b,c,o)
 107 0 	# nonzeros in Jacobian, obj. gradient
 14 11	# max name lengths: constraints, variables
 0 0 0 0 0	# common exprs: b,c,o,c1,o1
C0	#rate[CA,0.125]
o2	#*
n-2
o44	#exp
o2	#*
o16	#-
o2	#*
v0	#A1
o44	#exp
o2	#*
n-0.3006808876068151
v2	#E1
n0.125
C1	#rate[CA,0.25]
o2	#*
n-2
o44	#exp
o2	#*
o16	#-
o2	#*
v0	#A1
o44	#exp
o2	#*
n-0.3006808876068151
v2	#E1
n0.25
C2	#rate[CA,0.375]
o2	#*
n-2
o44	#exp
o2	#*
o16	#-
o2	#*
v0	#A1
o44	#exp
o2	#*
n-0.3006808876068151
v2	#E1
n0.375
C3	#rate[CA,0.5]
o2	#*
n-2
o44	#exp
o2	#*
o16	#-
o2	#*
v0	#A1
o44	#exp
o2	#*
n-0.3006808876068151
v2	#E1
n0.5
C4	#rate[CA,0.625]
o2	#*
n-2
o44	#exp
o2	#*
o16	#-
o2	#*
v0	#A1
o44	#exp
o2	#*
n-0.3006808876068151
v2	#E1
n0.625
C5	#rate[CA,0.75]
o2	#*
n-2
o44	#exp
o2	#*
o16	#-
o2	#*
v0	#A1
o44	#exp
o2	#*
n-0.3006808876068151
v2	#E1
n0.75
C6	#rate[CA,0.875]
o2	#*
n-2
o44	#exp
o2	#*
o16	#-
o2	#*
v0	#A1
o44	#exp
o2	#*
n-0.3006808876068151
v2	#E1
n0.875
C7	#rate[CA,1.0]
o2	#*
n-2
o44	#exp
o16	#-
o2	#*
v0	#A1
o44	#exp
o2	#*
n-0.3006808876068151
v2	#E1
C8	#rate[CB,0.125]
o2	#*
n-1
o2	#*
o3	#/
o2	#*
o2	#*
v0	#A1
o44	#exp
o2	#*
n-0.3006808876068151
v2	#E1
n2
o0	#+
o2	#*
v1	#A2
o44	#exp
o2	#*
n-0.3006808876068151
v3	#E2
o16	#-
o2	#*
v0	#A1
o44	#exp
o2	#*
n-0.3006808876068151
v2	#E1
o0	#+
o44	#exp
o2	#*
o16	#-
o2	#*
v0	#A1
o44	#exp
o2	#*
n-0.3006808876068151
v2	#E1
n0.125
o16	#-
o44	#exp
o2	#*
o16	#-
o2	#*
v1	#A2
o44	#exp
o2	#*
n-0.3006808876068151
v3	#E2
n0.125
C9	#rate[CB,0.25]
o2	#*
n-1
o2	#*
o3	#/
o2	#*
o2	#*
v0	#A1
o44	#exp
o2	#*
n-0.3006808876068151
v2	#E1
n2
o0	#+
o2	#*
v1	#A2
o44	#exp
o2	#*
n-0.3006808876068151
v3	#E2
o16	#-
o2	#*
v0	#A1
o44	#exp
o2	#*
n-0.3006808876068151
v2	#E1
o0	#+
o44	#exp
o2	#*
o16	#-
o2	#*
v0	#A1
o44	#exp
o2	#*
n-0.3006808876068151
v2	#E1
n0.25
o16	#-
o44	#exp
o2	#*
o16	#-
o2	#*
v1	#A2
o44	#exp
o2	#*
n-0.3006808876068151
v3	#E2
n0.25
C10	#rate[CB,0.375]
o2	#*
n-1
o2	#*
o3	#/
o2	#*
o2	#*
v0	#A1
o44	#exp
o2	#*
n-0.3006808876068151
v2	#E1
n2
o0	#+
o2	#*
v1	#A2
o44	#exp
o2	#*
n-0.3006808876068151
v3	#E2
o16	#-
o2	#*
v0	#A1
o44	#exp
o2	#*
n-0.3006808876068151
v2	#E1
o0	#+
o44	#exp
o2	#*
o16	#-
o2	#*
v0	#A1
o44	#exp
o2	#*
n-0.3006808876068151
v2	#E1
n0.375
o16	#-
o44	#exp
o2	#*
o16	#-
o2	#*
v1	#A2
o44	#exp
o2	#*
n-0.3006808876068151
v3	#E2
n0.375
C11	#rate[CB,0.5]
o2	#*
n-1
o2	#*
o3	#/
o2	#*
o2	#*
v0	#A1
o44	#exp
o2	#*
n-0.3006808876068151
v2	#E1
n2
o0	#+
o2	#*
v1	#A2
o44	#exp
o2	#*
n-0.3006808876068151
v3	#E2
o16	#-
o2	#*
v0	#A1
o44	#exp
o2	#*
n-0.3006808876068151
v2	#E1
o0	#+
o44	#exp
o2	#*
o16	#-
o2	#*
v0	#A1
o44	#exp
o2	#*
n-0.3006808876068151
v2	#E1
n0.5
o16	#-
o44	#exp
o2	#*
o16	#-
o2	#*
v1	#A2
o44	#exp
o2	#*
n-0.3006808876068151
v3	#E2
n0.5
C12	#rate[CB,0.625]
o2	#*
n-1
o2	#*
o3	#/
o2	#*
o2	#*
v0	#A1
o44	#exp
o2	#*
n-0.3006808876068151
v2	#E1
n2
o0	#+
o2	#*
v1	#A2
o44	#exp
o2	#*
n-0.3006808876068151
v3	#E2
o16	#-
o2	#*
v0	#A1
o44	#exp
o2	#*
n-0.3006808876068151
v2	#E1
o0	#+
o44	#exp
o2	#*
o16	#-
o2	#*
v0	#A1
o44	#exp
o2	#*
n-0.3006808876068151
v2	#E1
n0.625
o16	#-
o44	#exp
o2	#*
o16	#-
o2	#*
v1	#A2
o44	#exp
o2	#*
n-0.3006808876068151
v3	#E2
n0.625
C13	#rate[CB,0.75]
o2	#*
n-1
o2	#*
o3	#/
o2	#*
o2	#*
v0	#A1
o44	#exp
o2	#*
n-0.3006808876068151
v2	#E1
n2
o0	#+
o2	#*
v1	#A2
o44	#exp
o2	#*
n-0.3006808876068151
v3	#E2
o16	#-
o2	#*
v0	#A1
o44	#exp
o2	#*
n-0.3006808876068151
v2	#E1
o0	#+
o44	#exp
o2	#*
o16	#-
o2	#*
v0	#A1
o44	#exp
o2	#*
n-0.3006808876068151
v2	#E1
n0.75
o16	#-
o44	#exp
o2	#*
o16	#-
o2	#*
v1	#A2
o44	#exp
o2	#*
n-0.3006808876068151
v3	#E2
n0.75
C14	#rate[CB,0.875]
o2	#*
n-1
o2	#*
o3	#/
o2	#*
o2	#*
v0	#A1
o44	#exp
o2	#*
n-0.3006808876068151
v2	#E1
n2
o0	#+
o2	#*
v1	#A2
o44	#exp
o2	#*
n-0.3006808876068151
v3	#E2
o16	#-
o2	#*
v0	#A1
o44	#exp
o2	#*
n-0.3006808876068151
v2	#E1
o0	#+
o44	#exp
o2	#*
o16	#-
o2	#*
v0	#A1
o44	#exp
o2	#*
n-0.3006808876068151
v2	#E1
n0.875
o16	#-
o44	#exp
o2	#*
o16	#-
o2	#*
v1	#A2
o44	#exp
o2	#*
n-0.3006808876068151
v3	#E2
n0.875
C15	#rate[CB,1.0]
o2	#*
n-1
o2	#*
o3	#/
o2	#*
o2	#*
v0	#A1
o44	#exp
o2	#*
n-0.3006808876068151
v2	#E1
n2
o0	#+
o2	#*
v1	#A2
o44	#exp
o2	#*
n-0.3006808876068151
v3	#E2
o16	#-
o2	#*
v0	#A1
o44	#exp
o2	#*
n-0.3006808876068151
v2	#E1
o0	#+
o44	#exp
o16	#-
o2	#*
v0	#A1
o44	#exp
o2	#*
n-0.3006808876068151
v2	#E1
o16	#-
o44	#exp
o16	#-
o2	#*
v1	#A2
o44	#exp
o2	#*
n-0.3006808876068151
v3	#E2
C16	#rate[CC,0.125]
o0	#+
o2	#*
n2
o44	#exp
o2	#*
o16	#-
o2	#*
v0	#A1
o44	#exp
o2	#*
n-0.3006808876068151
v2	#E1
n0.125
o2	#*
o3	#/
o2	#*
o2	#*
v0	#A1
o44	#exp
o2	#*
n-0.3006808876068151
v2	#E1
n2
o0	#+
o2	#*
v1	#A2
o44	#exp
o2	#*
n-0.3006808876068151
v3	#E2
o16	#-
o2	#*
v0	#A1
o44	#exp
o2	#*
n-0.3006808876068151
v2	#E1
o0	#+
o44	#exp
o2	#*
o16	#-
o2	#*
v0	#A1
o44	#exp
o2	#*
n-0.3006808876068151
v2	#E1
n0.125
o16	#-
o44	#exp
o2	#*
o16	#-
o2	#*
v1	#A2
o44	#exp
o2	#*
n-0.3006808876068151
v3	#E2
n0.125
C17	#rate[CC,0.25]
o0	#+
o2	#*
n2
o44	#exp
o2	#*
o16	#-
o2	#*
v0	#A1
o44	#exp
o2	#*
n-0.3006808876068151
v2	#E1
n0.25
o2	#*
o3	#/
o2	#*
o2	#*
v0	#A1
o44	#exp
o2	#*
n-0.3006808876068151
v2	#E1
n2
o0	#+
o2	#*
v1	#A2
o44	#exp
o2	#*
n-0.3006808876068151
v3	#E2
o16	#-
o2	#*
v0	#A1
o44	#exp
o2	#*
n-0.3006808876068151
v2	#E1
o0	#+
o44	#exp
o2	#*
o16	#-
o2	#*
v0	#A1
o44	#exp
o2	#*
n-0.3006808876068151
v2	#E1
n0.25
o16	#-
o44	#exp
o2	#*
o16	#-
o2	#*
v1	#A2
o44	#exp
o2	#*
n-0.3006808876068151
v3	#E2
n0.25
C18	#rate[CC,0.375]
o0	#+
o2	#*
n2
o44	#exp
o2	#*
o16	#-
o2	#*
v0	#A1
o44	#exp
o2	#*
n-0.3006808876068151
v2	#E1
n0.375
o2	#*
o3	#/
o2	#*
o2	#*
v0	#A1
o44	#exp
o2	#*
n-0.3006808876068151
v2	#E1
n2
o0	#+
o2	#*
v1	#A2
o44	#exp
o2	#*
n-0.3006808876068151
v3	#E2
o16	#-
o2	#*
v0	#A1
o44	#exp
o2	#*
n-0.3006808876068151
v2	#E1
o0	#+
o44	#exp
o2	#*
o16	#-
o2	#*
v0	#A1
o44	#exp
o2	#*
n-0.3006808876068151
v2	#E1
n0.375
o16	#-
o44	#exp
o2	#*
o16	#-
o2	#*
v1	#A2
o44	#exp
o2	#*
n-0.3006808876068151
v3	#E2
n0.375
C19	#rate[CC,0.5]
o0	#+
o2	#*
n2
o44	#exp
o2	#*
o16	#-
o2	#*
v0	#A1
o44	#exp
o2	#*
n-0.3006808876068151
v2	#E1
n0.5
o2	#*
o3	#/
o2	#*
o2	#*
v0	#A1
o44	#exp
o2	#*
n-0.3006808876068151
v2	#E1
n2
o0	#+
o2	#*
v1	#A2
o44	#exp
o2	#*
n-0.3006808876068151
v3	#E2
o16	#-
o2	#*
v0	#A1
o44	#exp
o2	#*
n-0.3006808876068151
v2	#E1
o0	#+
o44	#exp
o2	#*
o16	#-
o2	#*
v0	#A1
o44	#exp
o2	#*
n-0.3006808876068151
v2	#E1
n0.5
o16	#-
o44	#exp
o2	#*
o16	#-
o2	#*
v1	#A2
o44	#exp
o2	#*
n-0.3006808876068151
v3	#E2
n0.5
C20	#rate[CC,0.625]
o0	#+
o2	#*
n2
o44	#exp
o2	#*
o16	#-
o2	#*
v0	#A1
o44	#exp
o2	#*
n-0.3006808876068151
v2	#E1
n0.625
o2	#*
o3	#/
o2	#*
o2	#*
v0	#A1
o44	#exp
o2	#*
n-0.3006808876068151
v2	#E1
n2
o0	#+
o2	#*
v1	#A2
o44	#exp
o2	#*
n-0.3006808876068151
v3	#E2
o16	#-
o2	#*
v0	#A1
o44	#exp
o2	#*
n-0.3006808876068151
v2	#E1
o0	#+
o44	#exp
o2	#*
o16	#-
o2	#*
v0	#A1
o44	#exp
o2	#*
n-0.3006808876068151
v2	#E1
n0.625
o16	#-
o44	#exp
o2	#*
o16	#-
o2	#*
v1	#A2
o44	#exp
o2	#*
n-0.3006808876068151
v3	#E2
n0.625
C21	#rate[CC,0.75]
o0	#+
o2	#*
n2
o44	#exp
o2	#*
o16	#-
o2	#*
v0	#A1
o44	#exp
o2	#*
n-0.3006808876068151
v2	#E1
n0.75
o2	#*
o3	#/
o2	#*
o2	#*
v0	#A1
o44	#exp
o2	#*
n-0.3006808876068151
v2	#E1
n2
o0	#+
o2	#*
v1	#A2
o44	#exp
o2	#*
n-0.3006808876068151
v3	#E2
o16	#-
o2	#*
v0	#A1
o44	#exp
o2	#*
n-0.3006808876068151
v2	#E1
o0	#+
o44	#exp
o2	#*
o16	#-
o2	#*
v0	#A1
o44	#exp
o2	#*
n-0.3006808876068151
v2	#E1
n0.75
o16	#-
o44	#exp
o2	#*
o16	#-
o2	#*
v1	#A2
o44	#exp
o2	#*
n-0.3006808876068151
v3	#E2
n0.75
C22	#rate[CC,0.875]
o0	#+
o2	#*
n2
o44	#exp
o2	#*
o16	#-
o2	#*
v0	#A1
o44	#exp
o2	#*
n-0.3006808876068151
v2	#E1
n0.875
o2	#*
o3	#/
o2	#*
o2	#*
v0	#A1
o44	#exp
o2	#*
n-0.3006808876068151
v2	#E1
n2
o0	#+
o2	#*
v1	#A2
o44	#exp
o2	#*
n-0.3006808876068151
v3	#E2
o16	#-
o2	#*
v0	#A1
o44	#exp
o2	#*
n-0.3006808876068151
v2	#E1
o0	#+
o44	#exp
o2	#*
o16	#-
o2	#*
v0	#A1
o44	#exp
o2	#*
n-0.3006808876068151
v2	#E1
n0.875
o16	#-
o44	#exp
o2	#*
o16	#-
o2	#*
v1	#A2
o44	#exp
o2	#*
n-0.3006808876068151
v3	#E2
n0.875
C23	#rate[CC,1.0]
o0	#+
o2	#*
n2
o44	#exp
o16	#-
o2	#*
v0	#A1
o44	#exp
o2	#*
n-0.3006808876068151
v2	#E1
o2	#*
o3	#/
o2	#*
o2	#*
v0	#A1
o44	#exp
o2	#*
n-0.3006808876068151
v2	#E1
n2
o0	#+
o2	#*
v1	#A2
o44	#exp
o2	#*
n-0.3006808876068151
v3	#E2
o16	#-
o2	#*
v0	#A1
o44	#exp
o2	#*
n-0.3006808876068151
v2	#E1
o0	#+
o44	#exp
o16	#-
o2	#*
v0	#A1
o44	#exp
o2	#*
n-0.3006808876068151
v2	#E1
o16	#-
o44	#exp
o16	#-
o2	#*
v1	#A2
o44	#exp
o2	#*
n-0.3006808876068151
v3	#E2
C24	#rate[CA,0.0]
n0
C25	#rate[CB,0.0]
n0
C26	#rate[CC,0.0]
n0
O0 1	#Obj
n0.0
x31	# initial guess
0 84.79085853498033
1 371.71773413976416
2 7.777032028026428
3 15.047135137500822
4 2.0
5 0.719322446055354
6 0.2587123906995288
7 0.09304881485140672
8 0.03346605055073282
9 0.012036440670982631
10 0.004329040972625683
11 0.0015569881707514779
12 0.0005599882697321022
13 4.235164736271502e-22
14 0.9641710429165355
15 0.9293904918037343
16 0.6863203566645003
17 0.4595773835359549
18 0.29384037884333075
19 0.18336027583725212
20 0.11288530579226083
21 0.06896332740423604
22 4.235164736271502e-22
23 0.3165065110281105
24 0.811897117496737
25 1.220630828484093
26 1.5069565659133122
27 1.6941231804856867
28 1.8123106831901221
29 1.8855577060369877
30 1.930476684326032
r	#27 ranges (rhs's)
4 0.0
4 0.0
4 0.0
4 0.0
4 0.0
4 0.0
4 0.0
4 0.0
4 0.0
4 0.0
4 0.0
4 0.0
4 0.0
4 0.0
4 0.0
4 0.0
4 2.0
4 2.0
4 2.0
4 2.0
4 2.0
4 2.0
4 2.0
4 2.0
4 2.0
4 0.0
4 0.0
b	#31 bounds (on variables)
4 84.79085853498033
4 371.71773413976416
4 7.777032028026428
4 15.047135137500822
2 0
2 0
2 0
2 0
2 0
2 0
2 0
2 0
2 0
2 0
2 0
2 0
2 0
2 0
2 0
2 0
2 0
2 0
2 0
2 0
2 0
2 0
2 0
2 0
2 0
2 0
2 0
k30	#intermediate Jacobian column lengths
24
40
64
80
81
82
83
84
85
86
87
88
89
90
91
92
93
94
95
96
97
98
99
100
101
102
103
104
105
106
J0 3
5 1
0 0
2 0
J1 3
6 1
0 0
2 0
J2 3
7 1
0 0
2 0
J3 3
8 1
0 0
2 0
J4 3
9 1
0 0
2 0
J5 3
10 1
0 0
2 0
J6 3
11 1
0 0
2 0
J7 3
12 1
0 0
2 0
J8 5
14 1
0 0
1 0
2 0
3 0
J9 5
15 1
0 0
1 0
2 0
3 0
J10 5
16 1
0 0
1 0
2 0
3 0
J11 5
17 1
0 0
1 0
2 0
3 0
J12 5
18 1
0 0
1 0
2 0
3 0
J13 5
19 1
0 0
1 0
2 0
3 0
J14 5
20 1
0 0
1 0
2 0
3 0
J15 5
21 1
0 0
1 0
2 0
3 0
J16 5
23 1
0 0
1 0
2 0
3 0
J17 5
24 1
0 0
1 0
2 0
3 0
J18 5
25 1
0 0
1 0
2 0
3 0
J19 5
26 1
0 0
1 0
2 0
3 0
J20 5
27 1
0 0
1 0
2 0
3 0
J21 5
28 1
0 0
1 0
2 0
3 0
J22 5
29 1
0 0
1 0
2 0
3 0
J23 5
30 1
0 0
1 0
2 0
3 0
J24 1
4 1
J25 1
13 1
J26 1
22 1
