pyomo/contrib/doe/col_row.col
A1
A2
E1
E2
C[CA,0.0]
C[CA,0.125]
C[CA,0.25]
C[CA,0.375]
C[CA,0.5]
C[CA,0.625]
C[CA,0.75]
C[CA,0.875]
C[CA,1.0]
C[CB,0.0]
C[CB,0.125]
C[CB,0.25]
C[CB,0.375]
C[CB,0.5]
C[CB,0.625]
C[CB,0.75]
C[CB,0.875]
C[CB,1.0]
C[CC,0.0]
C[CC,0.125]
C[CC,0.25]
C[CC,0.375]
C[CC,0.5]
C[CC,0.625]
C[CC,0.75]
C[CC,0.875]
C[CC,1.0]
